16,2	0,0	13,8	10,5	0,0	0,0	0,0	0,0	0,0	16,8
14,7	12,1	0,0	7,9	10,6	0,0	0,0	19,9	0,0	0,0
0,0	0,0	19,0	0,0	16,9	8,9	0,0	0,0	6,4	0,0
14,7	0,0	14,2	0,0	0,0	0,0	13,8	0,0	0,0	0,0
0,0	14,3	0,0	7,0	17,1	0,0	0,0	12,6	0,0	0,0
0,0	14,6	9,7	0,0	8,6	12,9	0,0	0,0	12,9	0,0
0,0	8,3	0,0	9,4	0,0	0,0	5,8	0,0	0,0	5,3
10,0	0,0	18,1	0,0	0,0	0,0	0,0	0,0	0,0	14,4
0,0	9,6	0,0	14,7	10,1	0,0	0,0	11,9	0,0	0,0
0,0	0,0	10,4	0,0	0,0	14,1	9,3	0,0	0,0	19,0
									
3,6	2,9	3,6	3,5	4,7	4,9	5,0	3,1	3,0	2,9
